(set-logic QF_S)
(set-option :produce-models true)

(declare-fun s644 () String)
(declare-fun s659 () String)
(declare-fun s662 () String)
(declare-fun s653 () String)
(declare-fun s641 () String)
(declare-fun s647 () String)
(declare-fun s650 () String)
(declare-fun s656 () String)
(declare-fun s638 () String)

(assert (= s653 "/clear" ))
(assert (= s662 "/setsize" ))
(assert (not (= s638 s650 )))
(assert (= s650 "/quit" ))
(assert (= s659 "/say" ))
(assert (not (= s638 s641 )))
(assert (not (str.contains s638 s659 )))
(assert (= s656 "/setfont" ))
(assert (not (str.contains s638 s656 )))
(assert (not (str.contains s638 s662 )))
(assert (not (= s638 s647 )))
(assert (= s644 "/restart" ))
(assert (= s641 "y" ))
(assert (= s647 "n" ))
(assert (not (= s638 s644 )))
(assert (not (= s638 s653 )))


(check-sat)
(get-model)
